2637
1500000
999524
999524
999524
999524
999524
999524
999524
999524
999524
999524
999524
999524
999524
999524
999524
991953
991953
991953
991953
991953
991953
991953
991953
991953
991953
991953
991953
991953
991953
991953
991953
990071
990071
990071
990071
990071
990071
990071
990071
990071
989231
989231
989231
989231
989231
989231
989231
989231
989231
989231
989231
989231
989231
989231
989231
989231
985596
985596
985596
985596
985596
985596
985596
985596
985596
985596
985596
985596
985596
985596
985596
985596
985596
985596
985596
985596
981851
981851
981851
981851
981851
981851
981851
981851
981851
981851
981851
981851
981851
981851
981851
981851
981851
981253
981253
981253
981253
981253
980974
980974
980974
980974
980974
980974
980974
980974
980974
980974
980974
980974
980974
980974
980974
980974
980974
980974
980974
980974
979606
979606
979606
979606
979606
979606
979606
979606
979606
979606
979606
968020
968020
968020
968020
968020
968020
967416
967416
967416
967416
967416
967416
967416
967416
967416
967416
967416
954495
954495
954495
954495
954495
954495
954495
954495
954495
954495
954495
954495
954495
954495
954495
954495
954495
954495
954495
949256
949256
949256
949256
949256
949256
949256
944064
939658
939658
939658
939658
939658
939658
937542
937542
937542
937542
937542
937542
937542
937542
937542
937542
937542
932367
932367
932367
932367
932367
932367
932367
932367
932367
932367
932367
932367
932367
932367
932367
932367
932367
932367
932367
931272
931272
931272
931272
931272
931272
931272
931272
931272
931272
931272
931272
931272
931272
931272
931272
925579
925579
925579
925579
925579
925579
925579
925579
925579
925579
925579
925579
925579
925579
925490
925490
925490
925490
925490
925490
925490
925490
925490
925490
925490
925490
925490
925490
925490
925490
925490
925490
925490
923151
923151
923151
923151
923151
923151
923151
923151
923151
923151
923151
923151
923151
923151
923151
923151
918708
918708
918708
918708
918708
918708
918708
918708
918708
918708
918708
918708
918708
918708
918708
914417
914417
914417
914417
914417
914417
914417
914417
914417
914417
914417
914417
914417
914417
914417
914417
914417
908477
908477
908477
908477
908477
908477
908477
908477
908477
907275
907275
907275
907275
907275
907275
907275
907275
907275
907275
907275
907275
907275
907275
907275
906316
906316
906316
906316
906316
906316
906316
906316
905686
899236
899236
898337
898337
898337
898337
897416
897416
897416
897416
897416
897416
897416
897416
897416
897416
897416
897416
897416
897416
888993
888993
888993
888993
888993
888993
888993
888993
888993
888993
888993
888993
888993
888993
886043
886043
886043
886043
886043
886043
886043
886043
886043
886043
886043
886043
886043
886043
886043
886043
886043
886043
886043
886043
875729
875729
875729
874380
874380
874380
874380
874380
874380
874380
874380
874380
874380
874380
874380
874380
874380
874380
874380
874380
872142
872142
872142
872142
870953
870953
870953
870953
870953
870953
870953
870953
870953
870953
870953
870953
867547
867547
867547
867547
865775
865775
865775
865775
865775
865775
864283
864283
864283
864283
864283
864283
864283
864283
864283
864283
864283
863970
863970
863970
863970
863970
863970
863970
863970
863970
863970
855772
855772
855772
855772
855772
855772
855772
855772
855772
855772
855772
855772
855772
855772
855772
855772
855772
855772
853615
853615
853615
853615
853615
853615
853615
853615
853615
853615
853615
853615
853615
853615
853615
853615
853615
853615
853615
853615
853093
853093
853093
853093
853093
853093
853093
853093
853093
853093
853093
853093
853093
848413
848413
848413
848413
848413
848413
848413
848413
848413
848413
848413
848413
848413
845783
845783
845783
844701
844701
844701
844701
844701
840584
840584
840584
840584
840584
840584
835177
835177
835177
835177
835177
835177
835177
835177
835177
835177
835177
835177
835177
835177
835177
835177
835177
835177
835177
831489
831489
831489
831489
831489
831489
831489
831489
831489
831489
826879
826879
826879
826879
826879
826879
826879
826879
826879
826879
826879
826879
814594
814594
814594
814594
814594
814594
814594
814594
814594
814594
814594
814594
814594
814594
814594
814594
814594
814594
814594
814594
809380
793225
793225
793225
793225
793225
793225
793225
793225
793225
793225
793225
793225
793225
793225
793225
793225
793225
793225
789229
789229
789229
789229
789229
786629
786629
786629
786629
786629
786629
786629
786629
786629
786629
786629
786629
786629
778869
778869
778869
778869
778869
778869
778869
778869
778869
778869
775171
775171
775171
775171
775171
775171
775171
775171
775171
775171
775171
775171
775171
775171
775171
775171
771558
771558
771558
771558
771558
771558
771558
771558
771558
771558
771558
771558
771558
761563
761563
761563
761563
761563
761455
761455
761455
761455
761455
761455
761455
761455
760035
760035
760035
760035
760035
760035
760035
760035
760035
760035
760035
760035
760035
760035
760035
753726
753726
753726
753726
753726
753726
753726
753726
753726
753726
753726
753726
753726
753726
753726
753726
753726
753554
753554
753554
753554
753554
753554
753554
753554
753554
753554
753554
753554
753554
753554
753554
753554
743826
743826
743826
743826
743667
743667
743315
743315
743315
743315
743315
743315
743315
743315
743315
743315
743315
743315
743315
743315
743315
736996
736996
736996
731176
731176
731176
731176
731176
731176
731176
731176
731176
731176
731176
731176
731176
731176
731176
731176
719430
719430
719430
719430
719430
719430
719430
719430
719430
719430
719430
719430
719430
719430
717542
717542
717542
717542
717542
717542
717542
717542
717542
717542
717542
717542
717542
717542
717542
717542
717542
717542
717542
717542
714202
714202
714202
708239
708239
708239
708239
708239
708239
708239
708239
708239
708239
708239
706981
706981
706981
706981
706981
706981
706981
706981
706981
706981
706981
706981
706981
706981
706981
703922
703922
703922
703922
703922
703922
703922
703117
703117
703117
703117
703117
703117
703117
703117
703117
703117
703117
703117
702730
702730
702730
702730
702730
699879
699879
699879
699879
699879
699879
699879
699879
699879
699879
699879
699879
699879
694595
668904
668904
668904
668904
668904
668904
668823
668823
668823
668823
668823
667071
667071
667071
667071
663612
663612
663612
663612
663612
663612
663612
656780
656780
656780
656780
656780
656780
656780
656780
656780
656780
656780
656780
656780
656780
656780
656780
656780
656780
656780
656780
656112
656112
652951
652951
652951
652951
652951
652951
652951
652951
652951
652951
652951
652951
652951
652951
652951
652951
646680
646680
646680
646680
646680
646680
646680
646680
646680
646680
646680
646680
646165
646165
646165
646165
646165
646165
646165
646165
646165
646165
643961
643961
643961
643961
643961
643961
643961
643961
643961
643961
643961
643961
641186
641186
641186
641186
641186
641186
641186
641186
641186
641186
641186
641186
641186
641186
641186
641186
641186
641186
640981
640981
640981
640981
640981
640981
640981
640852
640852
640852
640852
640852
640852
640852
640852
640852
640852
640852
640852
640852
640852
640852
640852
640852
640852
640852
640852
639481
639481
639481
639481
639481
639481
639481
639481
639481
639481
639481
639481
639481
639481
639481
639481
639481
639241
639241
639241
639241
639241
639241
639241
639241
639241
639241
630452
630452
630452
630452
630452
630452
630452
630452
630452
630452
626909
626909
626909
626909
626909
626909
626909
626909
626909
626909
626909
626909
626909
626909
626909
626909
626909
626909
623643
623643
623643
623643
623643
620665
620665
620665
620665
620665
620665
620376
620376
620376
620376
620376
620376
620376
620376
620376
620376
620376
620376
620376
620376
620376
620376
620376
614400
614400
614400
614400
614400
614400
614400
614400
614400
614400
614400
614400
614400
608717
608717
608717
608717
608717
608717
608717
608717
608717
608717
608717
608717
608717
608717
608717
608717
608717
607945
607945
607945
607945
607945
607945
607945
607945
607945
607945
607945
607945
607945
607945
607945
607945
607945
607945
607945
607945
603493
602624
602624
602624
602624
602624
602624
602624
602624
602624
602624
602624
602624
602624
602624
602624
600574
600574
600574
600574
600574
600574
600574
600574
600574
600574
600574
600574
599224
599224
599224
599224
599224
599224
599224
598734
598734
598734
598734
598734
598734
598706
598706
598706
598706
598706
595769
595769
595769
595769
595769
595769
595769
595769
595769
595769
595769
594063
594063
594063
594063
594063
592624
592624
592624
592624
592624
592624
589641
589641
589641
589641
589641
589641
589641
589641
589641
589641
589641
589641
587518
587518
587518
587397
587397
587397
586490
586490
586490
586490
586490
586490
586490
586490
586490
586490
586490
586490
586490
586490
586490
586490
586490
586490
586490
586490
583378
583378
583378
583378
583378
583378
583378
583378
583378
583183
583183
583183
583183
583183
583183
582834
582834
582834
582834
582834
582834
582834
582834
582834
582834
582834
582707
582707
582707
582707
582707
582707
582707
582707
582707
582707
582707
582707
582707
582707
582707
582707
582707
582707
582707
582344
582344
582344
582344
582344
582344
582344
582344
582344
582344
579035
579035
579035
579035
579035
579035
579035
579035
579035
579035
579035
575778
575778
575778
575778
575778
575778
575778
575778
573940
573940
573940
573940
573940
573940
573940
573940
573940
573940
573940
573940
573940
569351
569351
569351
569351
569351
569351
569351
569351
569351
569351
569351
569351
569351
569351
569351
569351
569351
568648
568648
568648
568648
568648
564755
564755
564755
564755
564755
564755
564755
564755
564755
562834
562834
562834
562834
562834
562834
562834
562797
562797
562797
562797
562797
562797
558648
558648
558648
558648
558648
558648
553808
553808
553808
553808
546905
546905
546905
546905
546905
546905
546905
546905
542545
542545
542545
542545
542545
542545
542545
542545
542545
542545
542545
542545
542545
542545
542545
542545
542545
533102
533102
533102
533102
533102
533102
533102
530666
530666
530666
530666
530666
530666
530666
530666
530666
530666
530666
530666
530666
520267
520267
520267
520267
520267
520267
520267
520267
520267
520267
520267
520267
520267
520267
520267
520267
520267
520267
519335
519335
519335
519335
519335
516756
516756
516756
516756
516756
516756
516756
516756
516756
516756
516756
516756
516756
516756
516677
516677
516677
516677
516677
516677
516677
516677
516677
516677
516677
516677
516677
516677
516677
516677
516677
509791
509791
509791
509791
509791
509791
509791
509791
509791
509791
509791
498992
498992
498992
498992
498992
498992
498992
498992
498992
498992
498992
498992
498992
498992
498992
498992
498992
498992
498992
498992
482919
482919
482919
482919
482919
482919
482919
482919
482919
482919
482919
482919
482919
482919
482919
482919
482919
482919
482919
474374
474374
474374
474374
474374
474374
474374
474374
474374
474374
474374
474374
474374
474374
474374
474374
474374
474374
474374
473418
467942
467942
467942
467263
467263
467263
467263
467263
467263
467263
467263
467263
467263
467263
466237
466237
465640
465640
465640
465640
465640
465640
465640
465640
465640
465640
465640
465640
465640
465640
465640
465640
465640
462269
462269
462269
462269
462269
462269
462269
462269
462269
462269
462269
462269
462269
462269
462269
462250
437263
434310
434310
434310
434310
434310
434310
434310
434310
434310
434310
434310
434310
434310
434310
434310
434310
434310
434310
434310
422676
420323
420323
420323
420323
420323
420323
420323
420323
420323
420323
420323
420323
420323
420323
420323
420323
420323
420323
420323
420323
416058
416058
416058
416058
415761
415761
415761
415761
415761
415761
415761
415761
415761
415761
410607
410607
410607
410607
410607
410607
410607
410607
410607
410607
410607
409775
409775
409775
409775
409775
409775
409775
409775
409775
409775
409775
409775
409775
409775
409197
409197
409197
409197
409197
409197
409197
409197
409197
409197
409197
407270
407270
394299
394299
394299
394299
394299
394299
394299
394299
394299
394299
394299
394299
394299
384220
384220
384220
384220
384220
384220
384220
384220
384220
384220
384220
384220
384220
384220
384220
384220
384220
384220
375271
375271
375271
375271
375271
375271
375271
375271
375271
375271
375271
375271
375271
375271
375271
375271
375271
365782
365782
365782
365782
360689
360689
359636
359636
359636
359636
359636
359636
359636
359636
359636
359636
359636
359636
359636
359636
359636
359636
354312
354312
354312
354312
349118
349118
349118
349118
349118
349118
349118
349118
349118
349118
349118
349118
349118
348020
348020
347194
347194
347194
347194
347194
346379
346379
346379
346379
346379
346379
346379
342000
342000
342000
342000
342000
342000
342000
342000
342000
342000
342000
342000
342000
342000
342000
342000
342000
338228
338228
338228
338228
338228
338228
338228
338228
338228
338228
338228
338228
338228
338228
338228
338228
338228
338228
338228
338228
329478
329478
329478
329478
329478
329478
329478
329025
329025
329025
329025
329025
329025
329025
329025
329025
329025
329025
329025
329025
329025
329025
329025
329025
311538
311538
311538
311538
311538
311538
311538
311538
311538
311538
311538
311538
308861
308861
308861
308861
308861
308861
308861
308861
308861
308861
308861
308861
308861
308861
308861
308861
308861
306406
306406
306406
304061
303466
303466
303466
303466
303466
303466
303466
303466
303466
303466
303466
303466
303466
298235
298235
298235
298235
298235
298235
298235
298235
298235
298235
298235
298235
298235
298235
298235
298235
298235
298235
294054
294054
293605
293605
293605
293605
293605
293605
293605
293605
293605
293605
293605
293605
293605
293605
293605
293605
293605
293605
293605
289529
289529
289529
289529
289529
289529
289529
289529
289529
289529
289529
289529
289529
289529
289529
289529
289341
289341
289341
289341
289341
289341
289341
289341
289341
289341
289341
289341
289341
288282
286412
286412
286412
286412
286412
286412
286412
286412
286412
286412
286412
286412
286412
286412
286412
286412
286412
286412
286412
286412
281391
281391
281391
281391
281391
281391
281391
281391
275590
275187
275187
274649
274649
274649
274649
274649
274649
274649
274649
274649
274649
274649
274649
274649
274649
274649
262164
262164
262164
262164
262164
262164
262164
262164
262164
262164
262164
262164
262164
262164
256491
255711
255711
255711
255711
255711
255711
255711
255711
255711
255711
255711
255711
255711
255711
255711
255711
255711
255711
255711
255711
249579
249579
249579
249579
249579
249579
249579
249579
248399
248399
248399
248399
248399
248399
248399
248399
248399
248399
248399
248399
248399
242601
240395
231038
231038
231038
231038
231038
229696
229696
229696
229696
229696
229696
229696
229696
229696
229696
229696
229696
229696
229696
229696
229696
222541
222541
222541
222541
222541
222541
222541
222541
221974
221974
221974
221974
221974
221974
221974
216508
216508
216508
216508
216508
216508
216508
210952
210952
210952
210952
210952
210952
210952
210952
210952
210952
210952
210952
210952
210952
210952
210952
210952
210952
203577
203577
203577
203577
203577
203577
203577
203577
203577
203577
203577
203577
203577
203577
203577
200347
200347
200347
194393
194393
194393
188951
188951
188951
180376
180376
174432
174432
174432
174432
174432
174432
174432
174432
174432
174432
174432
174432
174432
174432
174432
174432
174432
174432
169303
169303
169303
169303
169303
169303
169303
169303
169303
169303
169303
169303
169303
169303
169303
166603
166603
166603
166603
166603
166603
166603
166603
166603
166603
163046
163046
163046
163046
163046
163046
163046
163046
163046
163046
163046
163046
161491
161491
161491
161491
161491
161491
161491
161491
161491
161491
161491
161491
161491
161491
161491
161491
157988
157988
157988
157988
157988
157988
157988
157988
157988
157988
157988
157988
157988
154971
154971
136447
136447
136447
136447
136447
136447
136447
134437
134437
134437
134437
134437
134437
134437
134437
134437
132523
132523
132523
132523
132523
132523
132523
132523
132523
129383
129383
129383
129383
129383
129383
129383
129383
129383
129383
129383
129383
129383
129383
129383
121903
121903
121903
121903
121903
121903
121903
121903
121903
121903
121903
121903
121847
120190
120190
120190
120190
120190
120190
120190
120190
120190
120190
120190
120190
120190
120190
120190
120190
120190
120190
120190
120190
118056
118056
118056
118056
118056
118056
118056
118056
114546
114546
114546
114546
114546
114546
114546
114546
110874
110874
110874
110028
110028
110028
110028
110028
110028
110028
110028
110028
110028
110028
110028
108395
108395
108395
108395
108395
108395
108395
108395
108395
108395
104335
104335
104335
104335
104335
104335
101530
101530
101530
101530
101530
101530
101530
101530
101530
101530
101530
101530
101530
101530
95616
95616
95616
95616
95616
95616
95616
95616
95616
95616
95616
95616
95616
95616
95616
95616
95616
95481
95481
95481
95481
95481
95481
95481
95481
95481
95481
95481
95481
95481
95481
95481
95481
95481
95481
95481
94164
94164
94164
94164
94164
94164
94164
94164
94164
94164
94164
94164
94164
94164
94164
86683
86683
86683
86683
86683
86683
78762
78762
68575
68575
68575
68575
68575
68575
68245
68245
68245
68245
68245
68245
68245
68245
68245
68245
68245
66169
66169
66169
66169
66169
66169
66169
66169
66169
66169
66169
66169
66169
66169
66169
66124
66124
66124
66124
66124
66124
66124
66124
66124
66124
66124
66124
66124
66124
62350
62350
62350
62350
62350
62350
62350
62350
62350
62350
62350
62350
62350
62350
62350
62350
62350
52782
52782
52782
52782
52782
52782
52782
52782
52782
52782
52782
52782
52782
52782
52782
52782
52782
52600
52600
52600
52600
52600
52600
52600
52600
52600
52600
52600
52600
52600
52600
52600
52600
51244
51244
51244
51244
51244
51244
51244
51244
51244
51244
51244
51244
51244
51244
51244
40608
40608
40608
40608
40608
40608
39353
39353
39353
39353
38715
38715
38715
38715
38715
38715
38715
38715
38715
38715
38715
38715
38715
28554
28554
28554
28554
28554
28554
28554
28554
28554
28554
28554
28554
28554
28554
28554
28554
28554
28554
28554
28554
17228
17228
17228
17228
17228
17228
15989
14651
14651
14651
14651
14651
14651
14651
14651
14651
14651
14651
14651
14651
14651
14651
14651
14651
14651
14651
13147
13147
10650
